(set-logic HORN)
(set-info :source |
    Benchmark: C_VC
    Output by Princess (http://www.philipp.ruemmer.org/princess.shtml)
|)
(set-info :status unknown)
(declare-fun inv_main18 (Int Int Int Int Int Int Int) Bool)
(assert (forall ((var0 Int) (var1 Int) (var2 Int) (var3 Int) (var4 Int) (var5 Int) (var6 Int)) (or (not (and (and (and (and (and (and (<= 0 (+ var2 (- 1))) (= 0 var4)) (= 0 var1)) (= 0 var3)) (= 0 var6)) (= 0 var5)) (= 0 var0))) (inv_main18 var2 var4 var1 var3 var6 var5 var0))))
(assert (forall ((var0 Int) (var1 Int) (var2 Int) (var3 Int) (var4 Int) (var5 Int) (var6 Int) (var7 Int) (var8 Int) (var9 Int) (var10 Int)) (or (not (and (inv_main18 var5 var0 var7 var8 var2 var10 var9) (and (and (and (and (<= 0 (+ var10 (- 1))) (not (= var6 0))) (not (= var4 0))) (= (+ var10 (- 1)) var1)) (= (+ var9 1) var3)))) (inv_main18 var5 var0 var7 var8 var2 var1 var3))))
(assert (forall ((var0 Int) (var1 Int) (var2 Int) (var3 Int) (var4 Int) (var5 Int) (var6 Int) (var7 Int) (var8 Int) (var9 Int) (var10 Int)) (or (not (and (inv_main18 var3 var0 var5 var6 var2 var9 var8) (and (and (and (and (<= 0 (+ var5 (- 1))) (not (= var7 0))) (not (= var4 0))) (= (+ var5 (- 1)) var1)) (= (+ var6 1) var10)))) (inv_main18 var3 var0 var1 var10 var2 var9 var8))))
(assert (forall ((var0 Int) (var1 Int) (var2 Int) (var3 Int) (var4 Int) (var5 Int) (var6 Int) (var7 Int) (var8 Int) (var9 Int) (var10 Int) (var11 Int) (var12 Int) (var13 Int)) (or (not (and (inv_main18 var12 var0 var3 var4 var9 var7 var6) (and (and (and (and (and (and (and (<= 0 (+ var0 (- 1))) (not (= var10 0))) (not (= var2 0))) (= (+ (+ (+ var12 var9) var7) var6) var1)) (= (+ var0 (- 1)) var11)) (= 0 var5)) (= 1 var8)) (= 0 var13)))) (inv_main18 var1 var11 var3 var4 var5 var8 var13))))
(assert (forall ((var0 Int) (var1 Int) (var2 Int) (var3 Int) (var4 Int) (var5 Int) (var6 Int) (var7 Int) (var8 Int) (var9 Int) (var10 Int) (var11 Int) (var12 Int)) (or (not (and (inv_main18 var6 var0 var8 var9 var4 var12 var11) (and (and (and (and (and (and (<= 0 (+ var4 (- 1))) (not (= var1 0))) (not (= var7 0))) (= (+ (+ (+ var6 var4) var12) var11) var5)) (= 0 var10)) (= 1 var3)) (= 0 var2)))) (inv_main18 var5 var0 var8 var9 var10 var3 var2))))
(assert (forall ((var0 Int) (var1 Int) (var2 Int) (var3 Int) (var4 Int) (var5 Int) (var6 Int) (var7 Int) (var8 Int) (var9 Int) (var10 Int) (var11 Int) (var12 Int) (var13 Int)) (or (not (and (inv_main18 var10 var0 var3 var4 var8 var6 var5) (and (and (and (and (and (and (and (<= 0 (+ var8 (- 1))) (not (= var7 0))) (not (= var2 0))) (= (+ (+ (+ var10 var0) var3) var4) var13)) (= 0 var11)) (= 1 var9)) (= 0 var1)) (= (+ var8 (- 1)) var12)))) (inv_main18 var13 var11 var9 var1 var12 var6 var5))))
(assert (forall ((var0 Int) (var1 Int) (var2 Int) (var3 Int) (var4 Int) (var5 Int) (var6 Int) (var7 Int) (var8 Int) (var9 Int) (var10 Int) (var11 Int) (var12 Int)) (or (not (and (inv_main18 var5 var0 var7 var8 var2 var12 var11) (and (and (and (and (and (and (<= 0 (+ var0 (- 1))) (not (= var3 0))) (not (= var6 0))) (= (+ (+ (+ var5 var0) var7) var8) var9)) (= 0 var10)) (= 1 var1)) (= 0 var4)))) (inv_main18 var9 var10 var1 var4 var2 var12 var11))))
(assert (forall ((var0 Int) (var1 Int) (var2 Int) (var3 Int) (var4 Int) (var5 Int) (var6 Int) (var7 Int) (var8 Int) (var9 Int) (var10 Int) (var11 Int) (var12 Int)) (or (not (and (inv_main18 var4 var0 var6 var7 var1 var12 var11) (and (and (and (and (and (and (<= 0 (+ var0 (- 1))) (not (= var5 0))) (not (= var3 0))) (= (+ var0 (- 1)) var2)) (= (+ (+ (+ var1 var12) var11) 1) var9)) (= 0 var10)) (= 0 var8)))) (inv_main18 var4 var2 var6 var7 var9 var10 var8))))
(assert (forall ((var0 Int) (var1 Int) (var2 Int) (var3 Int) (var4 Int) (var5 Int) (var6 Int) (var7 Int) (var8 Int) (var9 Int) (var10 Int) (var11 Int) (var12 Int)) (or (not (and (inv_main18 var6 var0 var8 var9 var3 var12 var11) (and (and (and (and (and (and (<= 0 (+ var6 (- 1))) (not (= var10 0))) (not (= var7 0))) (= (+ var6 (- 1)) var5)) (= (+ (+ (+ var3 var12) var11) 1) var2)) (= 0 var4)) (= 0 var1)))) (inv_main18 var5 var0 var8 var9 var2 var4 var1))))
(assert (forall ((var0 Int) (var1 Int) (var2 Int) (var3 Int) (var4 Int) (var5 Int) (var6 Int) (var7 Int) (var8 Int) (var9 Int) (var10 Int) (var11 Int) (var12 Int)) (or (not (and (inv_main18 var5 var0 var7 var8 var1 var12 var11) (and (and (and (and (and (and (<= 0 (+ var5 (- 1))) (not (= var9 0))) (not (= var6 0))) (= (+ var5 (- 1)) var4)) (= (+ (+ (+ var0 var7) var8) 1) var10)) (= 0 var3)) (= 0 var2)))) (inv_main18 var4 var10 var3 var2 var1 var12 var11))))
(assert (forall ((var0 Int) (var1 Int) (var2 Int) (var3 Int) (var4 Int) (var5 Int) (var6 Int) (var7 Int) (var8 Int) (var9 Int) (var10 Int) (var11 Int)) (or (not (and (inv_main18 var4 var0 var6 var7 var1 var11 var10) (and (and (and (and (and (<= 0 (+ var1 (- 1))) (not (= var5 0))) (= (+ (+ var6 var7) 1) var8)) (= 0 var9)) (= 0 var2)) (= (+ var1 (- 1)) var3)))) (inv_main18 var4 var8 var9 var2 var3 var11 var10))))
(assert (forall ((var0 Int) (var1 Int) (var2 Int) (var3 Int) (var4 Int) (var5 Int) (var6 Int)) (not (and (inv_main18 var2 var0 var3 var4 var1 var6 var5) (not (<= 0 (+ 1 (* (- 1) (+ var3 var4)))))))))
(assert (forall ((var0 Int) (var1 Int) (var2 Int) (var3 Int) (var4 Int) (var5 Int) (var6 Int)) (not (and (inv_main18 var2 var0 var3 var4 var1 var6 var5) (not (<= 0 (+ 1 (* (- 1) (+ var6 var5)))))))))
(assert (forall ((var0 Int) (var1 Int) (var2 Int) (var3 Int) (var4 Int) (var5 Int) (var6 Int)) (not (and (inv_main18 var2 var0 var3 var4 var1 var6 var5) (not (<= 0 (+ (+ (+ (+ (+ (+ (+ var2 var0) var3) var4) var1) var6) var5) (- 1))))))))
(check-sat)
